[VALIDATOR STDOUT]
Checking plan: /home/jfan5/Safety-gen/runs/benchmark/optic/blocksworld_20260205_112402/blocksworld/optic_results/bw_ops3_n22_seed22001.plan
Plan executed successfully - checking goal
Plan valid
Final value: 108 

Successful plans:
Value: 108
 /home/jfan5/Safety-gen/runs/benchmark/optic/blocksworld_20260205_112402/blocksworld/optic_results/bw_ops3_n22_seed22001.plan 108
